id: 255
name: baxter
group: meszaros/misc
method: 1

Gurobi 7.0.2 (linux64, Matlab) logging started Tue Apr 17 15:56:26 2018


Gurobi 7.0.2 (linux64) logging started Tue Apr 17 15:56:26 2018

Optimize a model with 27441 rows, 15128 columns and 95971 nonzeros
Coefficient statistics:
  Matrix range     [1e-03, 3e+05]
  Objective range  [1e-01, 5e+03]
  Bounds range     [1e+00, 1e+00]
  RHS range        [1e+00, 1e+05]
Presolve removed 8584 rows and 4396 columns
Presolve time: 0.04s
Presolved: 18857 rows, 10732 columns, 78427 nonzeros

Iteration    Objective       Primal Inf.    Dual Inf.      Time
       0    6.5474225e+06   5.233440e+03   0.000000e+00      0s
    7423    5.6007256e+07   0.000000e+00   0.000000e+00      0s

Solved in 7423 iterations and 0.32 seconds
Optimal objective  5.600725567e+07
status: OPTIMAL
